Maximize
  - 3.6220196099161 edge_0_1_0_0 - 2.2370885235206 edge_0_2_0_0
   - 2.6269609018554 edge_0_5_0_0 - 0.34711 edge_0_6_0_0
   - 2.683154169297 edge_0_9_0_0 - 0.1080807451673211 edge_1_2_0_0
   - 0.4319443384739897 edge_1_5_0_0 - 0.5097564318403499 edge_1_6_0_0
   - 1.065315208108261 edge_1_7_0_0 - 1.120838887271948 edge_1_9_0_0
   - 0.7201247598787207 edge_1_11_0_0 - 0.1874717502635032 edge_2_1_0_0
   + 0.8734980731095412 edge_2_5_0_0 + 0.5392446440983 edge_2_6_0_0
   - 0.481073443071008 edge_2_7_0_0 + 0.1063983020229743 edge_2_9_0_0
   + 0.1198685229033227 edge_2_11_0_0 - 0.3613177398510543 edge_2_12_0_0
   - 0.9018898636176972 edge_2_15_0_0 - 1.070536039004148 edge_2_18_0_0
   + 0.2414867102156861 edge_2_19_0_0 + 0.4039493897822162 edge_5_1_0_0
   + 2.19047262942481 edge_5_2_0_0 + 0.8108821048442401 edge_5_6_0_0
   - 0.2622381125635915 edge_5_7_0_0 + 0.1750986939273406 edge_5_9_0_0
   + 0.7582570944215672 edge_5_11_0_0 + 0.0520462184984447 edge_5_12_0_0
   - 0.9474375436119826 edge_5_15_0_0 + 1.18704072914416 edge_5_19_0_0
   + 1.1075930023706 edge_6_1_0_0 + 1.2802791550152 edge_6_2_0_0
   + 2.1938340507105 edge_6_5_0_0 + 1.7344556903265 edge_6_7_0_0
   + 2.741713823793 edge_6_9_0_0 + 1.6718979983004 edge_6_11_0_0
   + 1.7419298954842 edge_6_12_0_0 + 0.8632878569114799 edge_6_13_0_0
   - 0.073630134830841 edge_6_14_0_0 + 1.552709068374 edge_6_15_0_0
   - 0.4844914031385901 edge_6_16_0_0 + 0.031868653634325 edge_6_17_0_0
   + 1.5739752151008 edge_6_18_0_0 + 4.2191777216428 edge_6_19_0_0
   + 1.734852149804726 edge_7_9_0_0 + 0.8982048448004771 edge_7_11_0_0
   + 0.6723613037980694 edge_7_12_0_0 - 0.5496004391535896 edge_7_13_0_0
   - 0.7262414100378299 edge_7_14_0_0 - 0.5036718224706752 edge_7_15_0_0
   + 0.082980361431175 edge_7_16_0_0 - 0.7181402442814825 edge_7_17_0_0
   - 1.682343997727299 edge_7_18_0_0 - 0.8934879305758771 edge_9_1_0_0
   - 0.5544153630135189 edge_9_2_0_0 - 1.104435454440873 edge_9_5_0_0
   + 0.07765084185733 edge_9_6_0_0 + 2.932512751347486 edge_9_7_0_0
   + 2.714747358418085 edge_9_11_0_0 + 2.477165236008077 edge_9_12_0_0
   + 0.0629856654570483 edge_9_13_0_0 - 0.3160352762909386 edge_9_14_0_0
   + 0.4614320006741334 edge_9_15_0_0 - 0.1220825912875817 edge_9_16_0_0
   + 0.00196716923829902 edge_9_17_0_0 + 0.3906905072026475 edge_9_18_0_0
   + 1.067553124917001 edge_9_19_0_0 - 1.407215873684614 edge_11_1_0_0
   - 1.518581325064464 edge_11_2_0_0 - 1.79249367414885 edge_11_5_0_0
   - 0.5875254011313544 edge_11_7_0_0 - 0.8097739063113444 edge_11_9_0_0
   - 0.0276657058441976 edge_11_12_0_0 - 0.1944860119116101 edge_11_13_0_0
   - 2.114138477819284 edge_12_2_0_0 - 2.570331159335621 edge_12_5_0_0
   + 0.1404268728006271 edge_12_7_0_0 - 0.5376637955048704 edge_12_9_0_0
   - 0.0486631577198364 edge_12_11_0_0 + 0.9022964294459509 edge_12_13_0_0
   + 0.5252307887305608 edge_12_14_0_0 + 0.8759194218928316 edge_12_15_0_0
   + 0.00960313307205788 edge_12_16_0_0 + 0.4943867873896911 edge_12_17_0_0
   + 0.2707521606657494 edge_12_18_0_0 + 1.126519324088036 edge_12_19_0_0
   - 0.6452058518778355 edge_13_1_0_0 - 0.7233111944173667 edge_13_2_0_0
   + 0.2652633994541131 edge_13_7_0_0 + 0.3597367600448225 edge_13_11_0_0
   + 0.6258849571973703 edge_13_12_0_0 + 0.4131447257703559 edge_13_14_0_0
   + 0.5229973555145384 edge_13_15_0_0 + 0.0196247273792194 edge_13_16_0_0
   - 0.0503741372865146 edge_13_17_0_0 + 0.1457899790095165 edge_13_18_0_0
   + 0.2064877098388964 edge_13_19_0_0 + 0.6038378105931245 edge_14_13_0_0
   - 0.0428542523726424 edge_14_16_0_0 + 0.6302474998827075 edge_14_17_0_0
   + 0.204341034396357 edge_14_18_0_0 - 0.936381361468606 edge_15_1_0_0
   - 0.4803543947528902 edge_15_2_0_0 - 0.7683419531045915 edge_15_5_0_0
   + 0.1627639023416 edge_15_6_0_0 + 0.5990973303207661 edge_15_7_0_0
   + 0.5140806584558198 edge_15_9_0_0 + 0.0708271860668649 edge_15_11_0_0
   + 0.8862314150869119 edge_15_12_0_0 + 1.298319065515793 edge_15_13_0_0
   + 3.394415806954294 edge_15_14_0_0 + 0.7323789809883178 edge_15_16_0_0
   + 1.503840403851716 edge_15_17_0_0 + 2.466081023436898 edge_15_18_0_0
   + 2.03783767686306 edge_15_19_0_0 + 0.6934608042217066 edge_16_13_0_0
   + 0.1081853524730596 edge_16_15_0_0 + 1.254792012788253 edge_16_17_0_0
   + 0.7625963255677627 edge_16_18_0_0 - 0.1926316666565439 edge_16_19_0_0
   - 2.101080899722196 edge_17_1_0_0 - 1.471835471434831 edge_17_5_0_0
   - 0.7752200633438935 edge_17_12_0_0 - 0.2143330638485288 edge_17_13_0_0
   - 0.6417896635203102 edge_17_14_0_0 - 0.3249823838948527 edge_17_15_0_0
   + 0.6903928471037285 edge_17_16_0_0 - 0.7520212316295156 edge_17_19_0_0
   - 1.171893038163134 edge_18_1_0_0 - 0.9398255226345857 edge_18_2_0_0
   - 1.304816547231538 edge_18_5_0_0 - 0.5362183698912001 edge_18_6_0_0
   + 0.3083722006046303 edge_18_7_0_0 + 0.0775366068179287 edge_18_9_0_0
   - 0.4465279249099617 edge_18_11_0_0 - 0.1239626157147226 edge_18_12_0_0
   + 0.4690509904282744 edge_18_13_0_0 + 0.8954340115747494 edge_18_14_0_0
   + 0.5266140831187205 edge_18_15_0_0 + 2.784436516222758 edge_18_16_0_0
   + 3.774154577318206 edge_18_17_0_0 + 1.37657507184586 edge_18_19_0_0
   - 1.361237439526286 edge_19_16_0_0 - 1.490634663511247 edge_19_18_0_0
Subject To
 one_parent_1: edge_0_1_0_0 + edge_2_1_0_0 + edge_5_1_0_0 + edge_6_1_0_0
   + edge_9_1_0_0 + edge_11_1_0_0 + edge_13_1_0_0 + edge_15_1_0_0
   + edge_17_1_0_0 + edge_18_1_0_0 = 1
 consume_one_flow_unit_1: flow_0_1_0_0 - flow_1_2_0_0 - flow_1_5_0_0
   - flow_1_6_0_0 - flow_1_7_0_0 - flow_1_9_0_0 - flow_1_11_0_0
   + flow_2_1_0_0 + flow_5_1_0_0 + flow_6_1_0_0 + flow_9_1_0_0
   + flow_11_1_0_0 + flow_13_1_0_0 + flow_15_1_0_0 + flow_17_1_0_0
   + flow_18_1_0_0 = 1
 one_parent_2: edge_0_2_0_0 + edge_1_2_0_0 + edge_5_2_0_0 + edge_6_2_0_0
   + edge_9_2_0_0 + edge_11_2_0_0 + edge_12_2_0_0 + edge_13_2_0_0
   + edge_15_2_0_0 + edge_18_2_0_0 = 1
 consume_one_flow_unit_2: flow_0_2_0_0 + flow_1_2_0_0 - flow_2_1_0_0
   - flow_2_5_0_0 - flow_2_6_0_0 - flow_2_7_0_0 - flow_2_9_0_0
   - flow_2_11_0_0 - flow_2_12_0_0 - flow_2_15_0_0 - flow_2_18_0_0
   - flow_2_19_0_0 + flow_5_2_0_0 + flow_6_2_0_0 + flow_9_2_0_0
   + flow_11_2_0_0 + flow_12_2_0_0 + flow_13_2_0_0 + flow_15_2_0_0
   + flow_18_2_0_0 = 1
 one_parent_3: = 1
 consume_one_flow_unit_3: = 1
 one_parent_4: = 1
 consume_one_flow_unit_4: = 1
 one_parent_5: edge_0_5_0_0 + edge_1_5_0_0 + edge_2_5_0_0 + edge_6_5_0_0
   + edge_9_5_0_0 + edge_11_5_0_0 + edge_12_5_0_0 + edge_15_5_0_0
   + edge_17_5_0_0 + edge_18_5_0_0 = 1
 consume_one_flow_unit_5: flow_0_5_0_0 + flow_1_5_0_0 + flow_2_5_0_0
   - flow_5_1_0_0 - flow_5_2_0_0 - flow_5_6_0_0 - flow_5_7_0_0
   - flow_5_9_0_0 - flow_5_11_0_0 - flow_5_12_0_0 - flow_5_15_0_0
   - flow_5_19_0_0 + flow_6_5_0_0 + flow_9_5_0_0 + flow_11_5_0_0
   + flow_12_5_0_0 + flow_15_5_0_0 + flow_17_5_0_0 + flow_18_5_0_0 = 1
 one_parent_6: edge_0_6_0_0 + edge_1_6_0_0 + edge_2_6_0_0 + edge_5_6_0_0
   + edge_9_6_0_0 + edge_15_6_0_0 + edge_18_6_0_0 = 1
 consume_one_flow_unit_6: flow_0_6_0_0 + flow_1_6_0_0 + flow_2_6_0_0
   + flow_5_6_0_0 - flow_6_1_0_0 - flow_6_2_0_0 - flow_6_5_0_0
   - flow_6_7_0_0 - flow_6_9_0_0 - flow_6_11_0_0 - flow_6_12_0_0
   - flow_6_13_0_0 - flow_6_14_0_0 - flow_6_15_0_0 - flow_6_16_0_0
   - flow_6_17_0_0 - flow_6_18_0_0 - flow_6_19_0_0 + flow_9_6_0_0
   + flow_15_6_0_0 + flow_18_6_0_0 = 1
 one_parent_7: edge_1_7_0_0 + edge_2_7_0_0 + edge_5_7_0_0 + edge_6_7_0_0
   + edge_9_7_0_0 + edge_11_7_0_0 + edge_12_7_0_0 + edge_13_7_0_0
   + edge_15_7_0_0 + edge_18_7_0_0 = 1
 consume_one_flow_unit_7: flow_1_7_0_0 + flow_2_7_0_0 + flow_5_7_0_0
   + flow_6_7_0_0 - flow_7_9_0_0 - flow_7_11_0_0 - flow_7_12_0_0
   - flow_7_13_0_0 - flow_7_14_0_0 - flow_7_15_0_0 - flow_7_16_0_0
   - flow_7_17_0_0 - flow_7_18_0_0 + flow_9_7_0_0 + flow_11_7_0_0
   + flow_12_7_0_0 + flow_13_7_0_0 + flow_15_7_0_0 + flow_18_7_0_0 = 1
 one_parent_8: = 1
 consume_one_flow_unit_8: = 1
 one_parent_9: edge_0_9_0_0 + edge_1_9_0_0 + edge_2_9_0_0 + edge_5_9_0_0
   + edge_6_9_0_0 + edge_7_9_0_0 + edge_11_9_0_0 + edge_12_9_0_0
   + edge_15_9_0_0 + edge_18_9_0_0 = 1
 consume_one_flow_unit_9: flow_0_9_0_0 + flow_1_9_0_0 + flow_2_9_0_0
   + flow_5_9_0_0 + flow_6_9_0_0 + flow_7_9_0_0 - flow_9_1_0_0
   - flow_9_2_0_0 - flow_9_5_0_0 - flow_9_6_0_0 - flow_9_7_0_0
   - flow_9_11_0_0 - flow_9_12_0_0 - flow_9_13_0_0 - flow_9_14_0_0
   - flow_9_15_0_0 - flow_9_16_0_0 - flow_9_17_0_0 - flow_9_18_0_0
   - flow_9_19_0_0 + flow_11_9_0_0 + flow_12_9_0_0 + flow_15_9_0_0
   + flow_18_9_0_0 = 1
 one_parent_10: = 1
 consume_one_flow_unit_10: = 1
 one_parent_11: edge_1_11_0_0 + edge_2_11_0_0 + edge_5_11_0_0
   + edge_6_11_0_0 + edge_7_11_0_0 + edge_9_11_0_0 + edge_12_11_0_0
   + edge_13_11_0_0 + edge_15_11_0_0 + edge_18_11_0_0 = 1
 consume_one_flow_unit_11: flow_1_11_0_0 + flow_2_11_0_0 + flow_5_11_0_0
   + flow_6_11_0_0 + flow_7_11_0_0 + flow_9_11_0_0 - flow_11_1_0_0
   - flow_11_2_0_0 - flow_11_5_0_0 - flow_11_7_0_0 - flow_11_9_0_0
   - flow_11_12_0_0 - flow_11_13_0_0 + flow_12_11_0_0 + flow_13_11_0_0
   + flow_15_11_0_0 + flow_18_11_0_0 = 1
 one_parent_12: edge_2_12_0_0 + edge_5_12_0_0 + edge_6_12_0_0
   + edge_7_12_0_0 + edge_9_12_0_0 + edge_11_12_0_0 + edge_13_12_0_0
   + edge_15_12_0_0 + edge_17_12_0_0 + edge_18_12_0_0 = 1
 consume_one_flow_unit_12: flow_2_12_0_0 + flow_5_12_0_0 + flow_6_12_0_0
   + flow_7_12_0_0 + flow_9_12_0_0 + flow_11_12_0_0 - flow_12_2_0_0
   - flow_12_5_0_0 - flow_12_7_0_0 - flow_12_9_0_0 - flow_12_11_0_0
   - flow_12_13_0_0 - flow_12_14_0_0 - flow_12_15_0_0 - flow_12_16_0_0
   - flow_12_17_0_0 - flow_12_18_0_0 - flow_12_19_0_0 + flow_13_12_0_0
   + flow_15_12_0_0 + flow_17_12_0_0 + flow_18_12_0_0 = 1
 one_parent_13: edge_6_13_0_0 + edge_7_13_0_0 + edge_9_13_0_0
   + edge_11_13_0_0 + edge_12_13_0_0 + edge_14_13_0_0 + edge_15_13_0_0
   + edge_16_13_0_0 + edge_17_13_0_0 + edge_18_13_0_0 = 1
 consume_one_flow_unit_13: flow_6_13_0_0 + flow_7_13_0_0 + flow_9_13_0_0
   + flow_11_13_0_0 + flow_12_13_0_0 - flow_13_1_0_0 - flow_13_2_0_0
   - flow_13_7_0_0 - flow_13_11_0_0 - flow_13_12_0_0 - flow_13_14_0_0
   - flow_13_15_0_0 - flow_13_16_0_0 - flow_13_17_0_0 - flow_13_18_0_0
   - flow_13_19_0_0 + flow_14_13_0_0 + flow_15_13_0_0 + flow_16_13_0_0
   + flow_17_13_0_0 + flow_18_13_0_0 = 1
 one_parent_14: edge_6_14_0_0 + edge_7_14_0_0 + edge_9_14_0_0
   + edge_12_14_0_0 + edge_13_14_0_0 + edge_15_14_0_0 + edge_17_14_0_0
   + edge_18_14_0_0 = 1
 consume_one_flow_unit_14: flow_6_14_0_0 + flow_7_14_0_0 + flow_9_14_0_0
   + flow_12_14_0_0 + flow_13_14_0_0 - flow_14_13_0_0 - flow_14_16_0_0
   - flow_14_17_0_0 - flow_14_18_0_0 + flow_15_14_0_0 + flow_17_14_0_0
   + flow_18_14_0_0 = 1
 one_parent_15: edge_2_15_0_0 + edge_5_15_0_0 + edge_6_15_0_0
   + edge_7_15_0_0 + edge_9_15_0_0 + edge_12_15_0_0 + edge_13_15_0_0
   + edge_16_15_0_0 + edge_17_15_0_0 + edge_18_15_0_0 = 1
 consume_one_flow_unit_15: flow_2_15_0_0 + flow_5_15_0_0 + flow_6_15_0_0
   + flow_7_15_0_0 + flow_9_15_0_0 + flow_12_15_0_0 + flow_13_15_0_0
   - flow_15_1_0_0 - flow_15_2_0_0 - flow_15_5_0_0 - flow_15_6_0_0
   - flow_15_7_0_0 - flow_15_9_0_0 - flow_15_11_0_0 - flow_15_12_0_0
   - flow_15_13_0_0 - flow_15_14_0_0 - flow_15_16_0_0 - flow_15_17_0_0
   - flow_15_18_0_0 - flow_15_19_0_0 + flow_16_15_0_0 + flow_17_15_0_0
   + flow_18_15_0_0 = 1
 one_parent_16: edge_6_16_0_0 + edge_7_16_0_0 + edge_9_16_0_0
   + edge_12_16_0_0 + edge_13_16_0_0 + edge_14_16_0_0 + edge_15_16_0_0
   + edge_17_16_0_0 + edge_18_16_0_0 + edge_19_16_0_0 = 1
 consume_one_flow_unit_16: flow_6_16_0_0 + flow_7_16_0_0 + flow_9_16_0_0
   + flow_12_16_0_0 + flow_13_16_0_0 + flow_14_16_0_0 + flow_15_16_0_0
   - flow_16_13_0_0 - flow_16_15_0_0 - flow_16_17_0_0 - flow_16_18_0_0
   - flow_16_19_0_0 + flow_17_16_0_0 + flow_18_16_0_0 + flow_19_16_0_0 = 1
 one_parent_17: edge_6_17_0_0 + edge_7_17_0_0 + edge_9_17_0_0
   + edge_12_17_0_0 + edge_13_17_0_0 + edge_14_17_0_0 + edge_15_17_0_0
   + edge_16_17_0_0 + edge_18_17_0_0 = 1
 consume_one_flow_unit_17: flow_6_17_0_0 + flow_7_17_0_0 + flow_9_17_0_0
   + flow_12_17_0_0 + flow_13_17_0_0 + flow_14_17_0_0 + flow_15_17_0_0
   + flow_16_17_0_0 - flow_17_1_0_0 - flow_17_5_0_0 - flow_17_12_0_0
   - flow_17_13_0_0 - flow_17_14_0_0 - flow_17_15_0_0 - flow_17_16_0_0
   - flow_17_19_0_0 + flow_18_17_0_0 = 1
 one_parent_18: edge_2_18_0_0 + edge_6_18_0_0 + edge_7_18_0_0
   + edge_9_18_0_0 + edge_12_18_0_0 + edge_13_18_0_0 + edge_14_18_0_0
   + edge_15_18_0_0 + edge_16_18_0_0 + edge_19_18_0_0 = 1
 consume_one_flow_unit_18: flow_2_18_0_0 + flow_6_18_0_0 + flow_7_18_0_0
   + flow_9_18_0_0 + flow_12_18_0_0 + flow_13_18_0_0 + flow_14_18_0_0
   + flow_15_18_0_0 + flow_16_18_0_0 - flow_18_1_0_0 - flow_18_2_0_0
   - flow_18_5_0_0 - flow_18_6_0_0 - flow_18_7_0_0 - flow_18_9_0_0
   - flow_18_11_0_0 - flow_18_12_0_0 - flow_18_13_0_0 - flow_18_14_0_0
   - flow_18_15_0_0 - flow_18_16_0_0 - flow_18_17_0_0 - flow_18_19_0_0
   + flow_19_18_0_0 = 1
 one_parent_19: edge_2_19_0_0 + edge_5_19_0_0 + edge_6_19_0_0
   + edge_9_19_0_0 + edge_12_19_0_0 + edge_13_19_0_0 + edge_15_19_0_0
   + edge_16_19_0_0 + edge_17_19_0_0 + edge_18_19_0_0 = 1
 consume_one_flow_unit_19: flow_2_19_0_0 + flow_5_19_0_0 + flow_6_19_0_0
   + flow_9_19_0_0 + flow_12_19_0_0 + flow_13_19_0_0 + flow_15_19_0_0
   + flow_16_19_0_0 + flow_17_19_0_0 + flow_18_19_0_0 - flow_19_16_0_0
   - flow_19_18_0_0 = 1
 root_flow: flow_0_1_0_0 + flow_0_2_0_0 + flow_0_5_0_0 + flow_0_6_0_0
   + flow_0_9_0_0 = 19
 inactive_no_flow_0_1_0_0: flow_0_1_0_0 - 1000 edge_0_1_0_0 <= 0
 inactive_no_flow_0_2_0_0: flow_0_2_0_0 - 1000 edge_0_2_0_0 <= 0
 inactive_no_flow_0_5_0_0: flow_0_5_0_0 - 1000 edge_0_5_0_0 <= 0
 inactive_no_flow_0_6_0_0: flow_0_6_0_0 - 1000 edge_0_6_0_0 <= 0
 inactive_no_flow_0_9_0_0: flow_0_9_0_0 - 1000 edge_0_9_0_0 <= 0
 inactive_no_flow_1_2_0_0: flow_1_2_0_0 - 1000 edge_1_2_0_0 <= 0
 inactive_no_flow_1_5_0_0: flow_1_5_0_0 - 1000 edge_1_5_0_0 <= 0
 inactive_no_flow_1_6_0_0: flow_1_6_0_0 - 1000 edge_1_6_0_0 <= 0
 inactive_no_flow_1_7_0_0: flow_1_7_0_0 - 1000 edge_1_7_0_0 <= 0
 inactive_no_flow_1_9_0_0: flow_1_9_0_0 - 1000 edge_1_9_0_0 <= 0
 inactive_no_flow_1_11_0_0: flow_1_11_0_0 - 1000 edge_1_11_0_0 <= 0
 inactive_no_flow_2_1_0_0: flow_2_1_0_0 - 1000 edge_2_1_0_0 <= 0
 inactive_no_flow_2_5_0_0: flow_2_5_0_0 - 1000 edge_2_5_0_0 <= 0
 inactive_no_flow_2_6_0_0: flow_2_6_0_0 - 1000 edge_2_6_0_0 <= 0
 inactive_no_flow_2_7_0_0: flow_2_7_0_0 - 1000 edge_2_7_0_0 <= 0
 inactive_no_flow_2_9_0_0: flow_2_9_0_0 - 1000 edge_2_9_0_0 <= 0
 inactive_no_flow_2_11_0_0: flow_2_11_0_0 - 1000 edge_2_11_0_0 <= 0
 inactive_no_flow_2_12_0_0: flow_2_12_0_0 - 1000 edge_2_12_0_0 <= 0
 inactive_no_flow_2_15_0_0: flow_2_15_0_0 - 1000 edge_2_15_0_0 <= 0
 inactive_no_flow_2_18_0_0: flow_2_18_0_0 - 1000 edge_2_18_0_0 <= 0
 inactive_no_flow_2_19_0_0: flow_2_19_0_0 - 1000 edge_2_19_0_0 <= 0
 inactive_no_flow_5_1_0_0: flow_5_1_0_0 - 1000 edge_5_1_0_0 <= 0
 inactive_no_flow_5_2_0_0: flow_5_2_0_0 - 1000 edge_5_2_0_0 <= 0
 inactive_no_flow_5_6_0_0: flow_5_6_0_0 - 1000 edge_5_6_0_0 <= 0
 inactive_no_flow_5_7_0_0: flow_5_7_0_0 - 1000 edge_5_7_0_0 <= 0
 inactive_no_flow_5_9_0_0: flow_5_9_0_0 - 1000 edge_5_9_0_0 <= 0
 inactive_no_flow_5_11_0_0: flow_5_11_0_0 - 1000 edge_5_11_0_0 <= 0
 inactive_no_flow_5_12_0_0: flow_5_12_0_0 - 1000 edge_5_12_0_0 <= 0
 inactive_no_flow_5_15_0_0: flow_5_15_0_0 - 1000 edge_5_15_0_0 <= 0
 inactive_no_flow_5_19_0_0: flow_5_19_0_0 - 1000 edge_5_19_0_0 <= 0
 inactive_no_flow_6_1_0_0: flow_6_1_0_0 - 1000 edge_6_1_0_0 <= 0
 inactive_no_flow_6_2_0_0: flow_6_2_0_0 - 1000 edge_6_2_0_0 <= 0
 inactive_no_flow_6_5_0_0: flow_6_5_0_0 - 1000 edge_6_5_0_0 <= 0
 inactive_no_flow_6_7_0_0: flow_6_7_0_0 - 1000 edge_6_7_0_0 <= 0
 inactive_no_flow_6_9_0_0: flow_6_9_0_0 - 1000 edge_6_9_0_0 <= 0
 inactive_no_flow_6_11_0_0: flow_6_11_0_0 - 1000 edge_6_11_0_0 <= 0
 inactive_no_flow_6_12_0_0: flow_6_12_0_0 - 1000 edge_6_12_0_0 <= 0
 inactive_no_flow_6_13_0_0: flow_6_13_0_0 - 1000 edge_6_13_0_0 <= 0
 inactive_no_flow_6_14_0_0: flow_6_14_0_0 - 1000 edge_6_14_0_0 <= 0
 inactive_no_flow_6_15_0_0: flow_6_15_0_0 - 1000 edge_6_15_0_0 <= 0
 inactive_no_flow_6_16_0_0: flow_6_16_0_0 - 1000 edge_6_16_0_0 <= 0
 inactive_no_flow_6_17_0_0: flow_6_17_0_0 - 1000 edge_6_17_0_0 <= 0
 inactive_no_flow_6_18_0_0: flow_6_18_0_0 - 1000 edge_6_18_0_0 <= 0
 inactive_no_flow_6_19_0_0: flow_6_19_0_0 - 1000 edge_6_19_0_0 <= 0
 inactive_no_flow_7_9_0_0: flow_7_9_0_0 - 1000 edge_7_9_0_0 <= 0
 inactive_no_flow_7_11_0_0: flow_7_11_0_0 - 1000 edge_7_11_0_0 <= 0
 inactive_no_flow_7_12_0_0: flow_7_12_0_0 - 1000 edge_7_12_0_0 <= 0
 inactive_no_flow_7_13_0_0: flow_7_13_0_0 - 1000 edge_7_13_0_0 <= 0
 inactive_no_flow_7_14_0_0: flow_7_14_0_0 - 1000 edge_7_14_0_0 <= 0
 inactive_no_flow_7_15_0_0: flow_7_15_0_0 - 1000 edge_7_15_0_0 <= 0
 inactive_no_flow_7_16_0_0: flow_7_16_0_0 - 1000 edge_7_16_0_0 <= 0
 inactive_no_flow_7_17_0_0: flow_7_17_0_0 - 1000 edge_7_17_0_0 <= 0
 inactive_no_flow_7_18_0_0: flow_7_18_0_0 - 1000 edge_7_18_0_0 <= 0
 inactive_no_flow_9_1_0_0: flow_9_1_0_0 - 1000 edge_9_1_0_0 <= 0
 inactive_no_flow_9_2_0_0: flow_9_2_0_0 - 1000 edge_9_2_0_0 <= 0
 inactive_no_flow_9_5_0_0: flow_9_5_0_0 - 1000 edge_9_5_0_0 <= 0
 inactive_no_flow_9_6_0_0: flow_9_6_0_0 - 1000 edge_9_6_0_0 <= 0
 inactive_no_flow_9_7_0_0: flow_9_7_0_0 - 1000 edge_9_7_0_0 <= 0
 inactive_no_flow_9_11_0_0: flow_9_11_0_0 - 1000 edge_9_11_0_0 <= 0
 inactive_no_flow_9_12_0_0: flow_9_12_0_0 - 1000 edge_9_12_0_0 <= 0
 inactive_no_flow_9_13_0_0: flow_9_13_0_0 - 1000 edge_9_13_0_0 <= 0
 inactive_no_flow_9_14_0_0: flow_9_14_0_0 - 1000 edge_9_14_0_0 <= 0
 inactive_no_flow_9_15_0_0: flow_9_15_0_0 - 1000 edge_9_15_0_0 <= 0
 inactive_no_flow_9_16_0_0: flow_9_16_0_0 - 1000 edge_9_16_0_0 <= 0
 inactive_no_flow_9_17_0_0: flow_9_17_0_0 - 1000 edge_9_17_0_0 <= 0
 inactive_no_flow_9_18_0_0: flow_9_18_0_0 - 1000 edge_9_18_0_0 <= 0
 inactive_no_flow_9_19_0_0: flow_9_19_0_0 - 1000 edge_9_19_0_0 <= 0
 inactive_no_flow_11_1_0_0: flow_11_1_0_0 - 1000 edge_11_1_0_0 <= 0
 inactive_no_flow_11_2_0_0: flow_11_2_0_0 - 1000 edge_11_2_0_0 <= 0
 inactive_no_flow_11_5_0_0: flow_11_5_0_0 - 1000 edge_11_5_0_0 <= 0
 inactive_no_flow_11_7_0_0: flow_11_7_0_0 - 1000 edge_11_7_0_0 <= 0
 inactive_no_flow_11_9_0_0: flow_11_9_0_0 - 1000 edge_11_9_0_0 <= 0
 inactive_no_flow_11_12_0_0: flow_11_12_0_0 - 1000 edge_11_12_0_0 <= 0
 inactive_no_flow_11_13_0_0: flow_11_13_0_0 - 1000 edge_11_13_0_0 <= 0
 inactive_no_flow_12_2_0_0: flow_12_2_0_0 - 1000 edge_12_2_0_0 <= 0
 inactive_no_flow_12_5_0_0: flow_12_5_0_0 - 1000 edge_12_5_0_0 <= 0
 inactive_no_flow_12_7_0_0: flow_12_7_0_0 - 1000 edge_12_7_0_0 <= 0
 inactive_no_flow_12_9_0_0: flow_12_9_0_0 - 1000 edge_12_9_0_0 <= 0
 inactive_no_flow_12_11_0_0: flow_12_11_0_0 - 1000 edge_12_11_0_0 <= 0
 inactive_no_flow_12_13_0_0: flow_12_13_0_0 - 1000 edge_12_13_0_0 <= 0
 inactive_no_flow_12_14_0_0: flow_12_14_0_0 - 1000 edge_12_14_0_0 <= 0
 inactive_no_flow_12_15_0_0: flow_12_15_0_0 - 1000 edge_12_15_0_0 <= 0
 inactive_no_flow_12_16_0_0: flow_12_16_0_0 - 1000 edge_12_16_0_0 <= 0
 inactive_no_flow_12_17_0_0: flow_12_17_0_0 - 1000 edge_12_17_0_0 <= 0
 inactive_no_flow_12_18_0_0: flow_12_18_0_0 - 1000 edge_12_18_0_0 <= 0
 inactive_no_flow_12_19_0_0: flow_12_19_0_0 - 1000 edge_12_19_0_0 <= 0
 inactive_no_flow_13_1_0_0: flow_13_1_0_0 - 1000 edge_13_1_0_0 <= 0
 inactive_no_flow_13_2_0_0: flow_13_2_0_0 - 1000 edge_13_2_0_0 <= 0
 inactive_no_flow_13_7_0_0: flow_13_7_0_0 - 1000 edge_13_7_0_0 <= 0
 inactive_no_flow_13_11_0_0: flow_13_11_0_0 - 1000 edge_13_11_0_0 <= 0
 inactive_no_flow_13_12_0_0: flow_13_12_0_0 - 1000 edge_13_12_0_0 <= 0
 inactive_no_flow_13_14_0_0: flow_13_14_0_0 - 1000 edge_13_14_0_0 <= 0
 inactive_no_flow_13_15_0_0: flow_13_15_0_0 - 1000 edge_13_15_0_0 <= 0
 inactive_no_flow_13_16_0_0: flow_13_16_0_0 - 1000 edge_13_16_0_0 <= 0
 inactive_no_flow_13_17_0_0: flow_13_17_0_0 - 1000 edge_13_17_0_0 <= 0
 inactive_no_flow_13_18_0_0: flow_13_18_0_0 - 1000 edge_13_18_0_0 <= 0
 inactive_no_flow_13_19_0_0: flow_13_19_0_0 - 1000 edge_13_19_0_0 <= 0
 inactive_no_flow_14_13_0_0: flow_14_13_0_0 - 1000 edge_14_13_0_0 <= 0
 inactive_no_flow_14_16_0_0: flow_14_16_0_0 - 1000 edge_14_16_0_0 <= 0
 inactive_no_flow_14_17_0_0: flow_14_17_0_0 - 1000 edge_14_17_0_0 <= 0
 inactive_no_flow_14_18_0_0: flow_14_18_0_0 - 1000 edge_14_18_0_0 <= 0
 inactive_no_flow_15_1_0_0: flow_15_1_0_0 - 1000 edge_15_1_0_0 <= 0
 inactive_no_flow_15_2_0_0: flow_15_2_0_0 - 1000 edge_15_2_0_0 <= 0
 inactive_no_flow_15_5_0_0: flow_15_5_0_0 - 1000 edge_15_5_0_0 <= 0
 inactive_no_flow_15_6_0_0: flow_15_6_0_0 - 1000 edge_15_6_0_0 <= 0
 inactive_no_flow_15_7_0_0: flow_15_7_0_0 - 1000 edge_15_7_0_0 <= 0
 inactive_no_flow_15_9_0_0: flow_15_9_0_0 - 1000 edge_15_9_0_0 <= 0
 inactive_no_flow_15_11_0_0: flow_15_11_0_0 - 1000 edge_15_11_0_0 <= 0
 inactive_no_flow_15_12_0_0: flow_15_12_0_0 - 1000 edge_15_12_0_0 <= 0
 inactive_no_flow_15_13_0_0: flow_15_13_0_0 - 1000 edge_15_13_0_0 <= 0
 inactive_no_flow_15_14_0_0: flow_15_14_0_0 - 1000 edge_15_14_0_0 <= 0
 inactive_no_flow_15_16_0_0: flow_15_16_0_0 - 1000 edge_15_16_0_0 <= 0
 inactive_no_flow_15_17_0_0: flow_15_17_0_0 - 1000 edge_15_17_0_0 <= 0
 inactive_no_flow_15_18_0_0: flow_15_18_0_0 - 1000 edge_15_18_0_0 <= 0
 inactive_no_flow_15_19_0_0: flow_15_19_0_0 - 1000 edge_15_19_0_0 <= 0
 inactive_no_flow_16_13_0_0: flow_16_13_0_0 - 1000 edge_16_13_0_0 <= 0
 inactive_no_flow_16_15_0_0: flow_16_15_0_0 - 1000 edge_16_15_0_0 <= 0
 inactive_no_flow_16_17_0_0: flow_16_17_0_0 - 1000 edge_16_17_0_0 <= 0
 inactive_no_flow_16_18_0_0: flow_16_18_0_0 - 1000 edge_16_18_0_0 <= 0
 inactive_no_flow_16_19_0_0: flow_16_19_0_0 - 1000 edge_16_19_0_0 <= 0
 inactive_no_flow_17_1_0_0: flow_17_1_0_0 - 1000 edge_17_1_0_0 <= 0
 inactive_no_flow_17_5_0_0: flow_17_5_0_0 - 1000 edge_17_5_0_0 <= 0
 inactive_no_flow_17_12_0_0: flow_17_12_0_0 - 1000 edge_17_12_0_0 <= 0
 inactive_no_flow_17_13_0_0: flow_17_13_0_0 - 1000 edge_17_13_0_0 <= 0
 inactive_no_flow_17_14_0_0: flow_17_14_0_0 - 1000 edge_17_14_0_0 <= 0
 inactive_no_flow_17_15_0_0: flow_17_15_0_0 - 1000 edge_17_15_0_0 <= 0
 inactive_no_flow_17_16_0_0: flow_17_16_0_0 - 1000 edge_17_16_0_0 <= 0
 inactive_no_flow_17_19_0_0: flow_17_19_0_0 - 1000 edge_17_19_0_0 <= 0
 inactive_no_flow_18_1_0_0: flow_18_1_0_0 - 1000 edge_18_1_0_0 <= 0
 inactive_no_flow_18_2_0_0: flow_18_2_0_0 - 1000 edge_18_2_0_0 <= 0
 inactive_no_flow_18_5_0_0: flow_18_5_0_0 - 1000 edge_18_5_0_0 <= 0
 inactive_no_flow_18_6_0_0: flow_18_6_0_0 - 1000 edge_18_6_0_0 <= 0
 inactive_no_flow_18_7_0_0: flow_18_7_0_0 - 1000 edge_18_7_0_0 <= 0
 inactive_no_flow_18_9_0_0: flow_18_9_0_0 - 1000 edge_18_9_0_0 <= 0
 inactive_no_flow_18_11_0_0: flow_18_11_0_0 - 1000 edge_18_11_0_0 <= 0
 inactive_no_flow_18_12_0_0: flow_18_12_0_0 - 1000 edge_18_12_0_0 <= 0
 inactive_no_flow_18_13_0_0: flow_18_13_0_0 - 1000 edge_18_13_0_0 <= 0
 inactive_no_flow_18_14_0_0: flow_18_14_0_0 - 1000 edge_18_14_0_0 <= 0
 inactive_no_flow_18_15_0_0: flow_18_15_0_0 - 1000 edge_18_15_0_0 <= 0
 inactive_no_flow_18_16_0_0: flow_18_16_0_0 - 1000 edge_18_16_0_0 <= 0
 inactive_no_flow_18_17_0_0: flow_18_17_0_0 - 1000 edge_18_17_0_0 <= 0
 inactive_no_flow_18_19_0_0: flow_18_19_0_0 - 1000 edge_18_19_0_0 <= 0
 inactive_no_flow_19_16_0_0: flow_19_16_0_0 - 1000 edge_19_16_0_0 <= 0
 inactive_no_flow_19_18_0_0: flow_19_18_0_0 - 1000 edge_19_18_0_0 <= 0
Bounds
Binaries
 edge_0_1_0_0 edge_0_2_0_0 edge_0_5_0_0 edge_0_6_0_0 edge_0_9_0_0
 edge_1_2_0_0 edge_1_5_0_0 edge_1_6_0_0 edge_1_7_0_0 edge_1_9_0_0
 edge_1_11_0_0 edge_2_1_0_0 edge_2_5_0_0 edge_2_6_0_0 edge_2_7_0_0
 edge_2_9_0_0 edge_2_11_0_0 edge_2_12_0_0 edge_2_15_0_0 edge_2_18_0_0
 edge_2_19_0_0 edge_5_1_0_0 edge_5_2_0_0 edge_5_6_0_0 edge_5_7_0_0
 edge_5_9_0_0 edge_5_11_0_0 edge_5_12_0_0 edge_5_15_0_0 edge_5_19_0_0
 edge_6_1_0_0 edge_6_2_0_0 edge_6_5_0_0 edge_6_7_0_0 edge_6_9_0_0
 edge_6_11_0_0 edge_6_12_0_0 edge_6_13_0_0 edge_6_14_0_0 edge_6_15_0_0
 edge_6_16_0_0 edge_6_17_0_0 edge_6_18_0_0 edge_6_19_0_0 edge_7_9_0_0
 edge_7_11_0_0 edge_7_12_0_0 edge_7_13_0_0 edge_7_14_0_0 edge_7_15_0_0
 edge_7_16_0_0 edge_7_17_0_0 edge_7_18_0_0 edge_9_1_0_0 edge_9_2_0_0
 edge_9_5_0_0 edge_9_6_0_0 edge_9_7_0_0 edge_9_11_0_0 edge_9_12_0_0
 edge_9_13_0_0 edge_9_14_0_0 edge_9_15_0_0 edge_9_16_0_0 edge_9_17_0_0
 edge_9_18_0_0 edge_9_19_0_0 edge_11_1_0_0 edge_11_2_0_0 edge_11_5_0_0
 edge_11_7_0_0 edge_11_9_0_0 edge_11_12_0_0 edge_11_13_0_0 edge_12_2_0_0
 edge_12_5_0_0 edge_12_7_0_0 edge_12_9_0_0 edge_12_11_0_0 edge_12_13_0_0
 edge_12_14_0_0 edge_12_15_0_0 edge_12_16_0_0 edge_12_17_0_0 edge_12_18_0_0
 edge_12_19_0_0 edge_13_1_0_0 edge_13_2_0_0 edge_13_7_0_0 edge_13_11_0_0
 edge_13_12_0_0 edge_13_14_0_0 edge_13_15_0_0 edge_13_16_0_0 edge_13_17_0_0
 edge_13_18_0_0 edge_13_19_0_0 edge_14_13_0_0 edge_14_16_0_0 edge_14_17_0_0
 edge_14_18_0_0 edge_15_1_0_0 edge_15_2_0_0 edge_15_5_0_0 edge_15_6_0_0
 edge_15_7_0_0 edge_15_9_0_0 edge_15_11_0_0 edge_15_12_0_0 edge_15_13_0_0
 edge_15_14_0_0 edge_15_16_0_0 edge_15_17_0_0 edge_15_18_0_0 edge_15_19_0_0
 edge_16_13_0_0 edge_16_15_0_0 edge_16_17_0_0 edge_16_18_0_0 edge_16_19_0_0
 edge_17_1_0_0 edge_17_5_0_0 edge_17_12_0_0 edge_17_13_0_0 edge_17_14_0_0
 edge_17_15_0_0 edge_17_16_0_0 edge_17_19_0_0 edge_18_1_0_0 edge_18_2_0_0
 edge_18_5_0_0 edge_18_6_0_0 edge_18_7_0_0 edge_18_9_0_0 edge_18_11_0_0
 edge_18_12_0_0 edge_18_13_0_0 edge_18_14_0_0 edge_18_15_0_0 edge_18_16_0_0
 edge_18_17_0_0 edge_18_19_0_0 edge_19_16_0_0 edge_19_18_0_0
End
